Version identifier: 22.1.0.0 | 2022-03-09 | 1a383f8ce
CPXPARAM_Read_DataCheck                          1
CPXPARAM_Threads                                 1
CPXPARAM_TimeLimit                               3600
Tried aggregator 2 times.
MIP Presolve eliminated 817 rows and 351 columns.
MIP Presolve modified 4323 coefficients.
Aggregator did 127 substitutions.
Reduced MIP has 1252 rows, 272 columns, and 7121 nonzeros.
Reduced MIP has 217 binaries, 0 generals, 0 SOSs, and 0 indicators.
Presolve time = 0.01 sec. (13.17 ticks)
Probing time = 0.00 sec. (2.90 ticks)
Tried aggregator 1 time.
Detecting symmetries...
Reduced MIP has 1252 rows, 272 columns, and 7121 nonzeros.
Reduced MIP has 217 binaries, 0 generals, 0 SOSs, and 0 indicators.
Presolve time = 0.01 sec. (3.52 ticks)
Probing time = 0.00 sec. (3.36 ticks)
Clique table members: 1907.
MIP emphasis: balance optimality and feasibility.
MIP search method: dynamic search.
Parallel mode: none, using 1 thread.
Root relaxation solution time = 0.00 sec. (3.11 ticks)

        Nodes                                         Cuts/
   Node  Left     Objective  IInf  Best Integer    Best Bound    ItCnt     Gap

      0     0       10.4000    39                     10.4000       74         
*     0+    0                           17.5400       10.4000            40.71%
Detecting symmetries...
      0     2       10.4000    14       17.5400       10.4000       74   40.71%
Elapsed time = 0.10 sec. (90.27 ticks, tree = 0.01 MB, solutions = 1)
*   120+   34                           11.2600       10.4000             7.64%
*   180+   38                           10.7700       10.4000             3.44%
    199    31    infeasible             10.7700       10.4000     4200    3.44%

Cover cuts applied:  7
Implied bound cuts applied:  15

Root node processing (before b&c):
  Real time             =    0.10 sec. (90.29 ticks)
Sequential b&c:
  Real time             =    0.16 sec. (249.61 ticks)
                          ------------
Total (root+branch&cut) =    0.26 sec. (339.90 ticks)
